90 15268714
90 11 5 79 32 89 88 55 4 29 80 84 67 10 83 52 27 15 1 48 56 26 86 65 24 63 18 75 77 82 78 23 25 72 41 17 6 61 66 28 20 62 3 47 76 34 58 74 59 36 7 69 39 44 57 19 37 33 30 64 38 42 71 46 49 68 81 87 31 51 45 12 43 50 70 54 22 8 53 16 60 14 2 35 9 40 73 85 13 21 
